Welcome to the CBC MILP Solver 
Version: 2.10.7 
Build Date: Feb 14 2022 

command line - cbc inputs/new_no_tr/order/triang10_3_up_right_input.lp sec 1800 solve solu solutions/new_no_tr/triang10_3_up_right_input.lp (default strategy 1)
seconds was changed from 1e+100 to 1800
Continuous objective value is 265.103 - 13.11 seconds
Cgl0002I 253 variables fixed
Cgl0003I 0 fixed, 31 tightened bounds, 2330 strengthened rows, 0 substitutions
Cgl0003I 0 fixed, 43 tightened bounds, 2075 strengthened rows, 0 substitutions
Cgl0003I 0 fixed, 29 tightened bounds, 1115 strengthened rows, 0 substitutions
Cgl0003I 0 fixed, 19 tightened bounds, 779 strengthened rows, 0 substitutions
Cgl0003I 0 fixed, 19 tightened bounds, 685 strengthened rows, 0 substitutions
Cgl0003I 0 fixed, 14 tightened bounds, 551 strengthened rows, 0 substitutions
Cgl0003I 0 fixed, 10 tightened bounds, 337 strengthened rows, 0 substitutions
Cgl0003I 0 fixed, 7 tightened bounds, 264 strengthened rows, 0 substitutions
Cgl0003I 0 fixed, 10 tightened bounds, 258 strengthened rows, 0 substitutions
Cgl0004I processed model has 12052 rows, 4026 columns (4026 integer (3970 of which binary)) and 40654 elements
Cutoff increment increased from 1e-05 to 0.9999
Cbc0045I 1 integer variables out of 4026 objects (4026 integer) have cost of 1 - high priority
Cbc0045I branch on satisfied Y create fake objective Y random cost Y
Cbc0038I Initial state - 1720 integers unsatisfied sum - 457.597
Cbc0038I Pass   1: (28.82 seconds) suminf.  142.32982 (1481) obj. 459.528 iterations 6857
Cbc0038I Pass   2: (30.45 seconds) suminf.   96.42397 (1546) obj. 480.11 iterations 2483
Cbc0038I Pass   3: (31.28 seconds) suminf.   84.82927 (1494) obj. 482.983 iterations 1124
Cbc0038I Pass   4: (31.54 seconds) suminf.   84.32174 (1490) obj. 483.602 iterations 258
Cbc0038I Pass   5: (32.41 seconds) suminf.   79.10155 (1533) obj. 481.107 iterations 1092
Cbc0038I Pass   6: (32.84 seconds) suminf.   78.13247 (1503) obj. 479.618 iterations 591
Cbc0038I Pass   7: (33.83 seconds) suminf.   77.78918 (1588) obj. 490.957 iterations 1329
Cbc0038I Pass   8: (34.38 seconds) suminf.   74.73011 (1601) obj. 492.114 iterations 646
Cbc0038I Pass   9: (34.93 seconds) suminf.   70.86456 (1618) obj. 487.225 iterations 614
Cbc0038I Pass  10: (35.88 seconds) suminf.   68.87759 (1483) obj. 490.325 iterations 1209
Cbc0038I Pass  11: (36.30 seconds) suminf.   68.54085 (1554) obj. 490.097 iterations 501
Cbc0038I Pass  12: (37.23 seconds) suminf.   69.95215 (1557) obj. 489.539 iterations 1180
Cbc0038I Pass  13: (37.60 seconds) suminf.   68.66695 (1592) obj. 490.215 iterations 401
Cbc0038I Pass  14: (38.91 seconds) suminf.   69.51862 (1520) obj. 496.383 iterations 1847
Cbc0038I Pass  15: (39.75 seconds) suminf.   70.29545 (1563) obj. 498.183 iterations 1046
Cbc0038I Pass  16: (40.63 seconds) suminf.   68.28906 (1633) obj. 491.024 iterations 1221
Cbc0038I Pass  17: (41.15 seconds) suminf.   68.88606 (1568) obj. 491.055 iterations 597
Cbc0038I Pass  18: (41.41 seconds) suminf.   68.68598 (1565) obj. 490.729 iterations 239
Cbc0038I Pass  19: (41.61 seconds) suminf.   68.73431 (1560) obj. 490.721 iterations 189
Cbc0038I Pass  20: (42.68 seconds) suminf.   70.99938 (1647) obj. 493.377 iterations 1427
Cbc0038I Pass  21: (42.98 seconds) suminf.   70.91743 (1656) obj. 491.803 iterations 285
Cbc0038I Pass  22: (44.09 seconds) suminf.   68.12785 (1539) obj. 490.878 iterations 1469
Cbc0038I Pass  23: (44.39 seconds) suminf.   69.24497 (1547) obj. 490.289 iterations 306
Cbc0038I Pass  24: (45.27 seconds) suminf.   70.87675 (1533) obj. 492.161 iterations 1500
Cbc0038I Pass  25: (45.59 seconds) suminf.   72.97432 (1571) obj. 493.171 iterations 373
Cbc0038I Pass  26: (46.47 seconds) suminf.   71.05854 (1606) obj. 492.426 iterations 1246
Cbc0038I Pass  27: (47.01 seconds) suminf.   71.49492 (1574) obj. 491.043 iterations 756
Cbc0038I Pass  28: (48.03 seconds) suminf.   72.35434 (1589) obj. 488.056 iterations 1499
Cbc0038I Pass  29: (48.56 seconds) suminf.   71.74496 (1583) obj. 489.758 iterations 785
Cbc0038I Pass  30: (49.32 seconds) suminf.   72.32469 (1570) obj. 491.652 iterations 1168
Cbc0038I Pass  31: (49.83 seconds) suminf.   72.41887 (1583) obj. 490.133 iterations 597
Cbc0038I Pass  32: (50.90 seconds) suminf.   73.17644 (1603) obj. 489.61 iterations 1678
Cbc0038I Pass  33: (51.44 seconds) suminf.   72.73038 (1568) obj. 490.812 iterations 703
Cbc0038I Pass  34: (52.31 seconds) suminf.   73.69495 (1632) obj. 492.849 iterations 1319
Cbc0038I Pass  35: (52.68 seconds) suminf.   73.33851 (1629) obj. 494.715 iterations 417
Cbc0038I Pass  36: (53.67 seconds) suminf.   78.69336 (1595) obj. 501.471 iterations 1309
Cbc0038I Pass  37: (54.50 seconds) suminf.   76.44703 (1623) obj. 498.836 iterations 1155
Cbc0038I Pass  38: (55.83 seconds) suminf.   80.31279 (1607) obj. 514.081 iterations 1700
Cbc0038I Pass  39: (56.68 seconds) suminf.   74.06862 (1588) obj. 503.354 iterations 1096
Cbc0038I Pass  40: (57.46 seconds) suminf.   75.05316 (1587) obj. 513.767 iterations 1007
Cbc0038I Pass  41: (57.96 seconds) suminf.   73.57150 (1621) obj. 500.323 iterations 555
Cbc0038I Pass  42: (59.11 seconds) suminf.   81.38453 (1610) obj. 512.405 iterations 1468
Cbc0038I Pass  43: (59.79 seconds) suminf.   77.19970 (1632) obj. 503.422 iterations 865
Cbc0038I Pass  44: (60.66 seconds) suminf.   80.07514 (1621) obj. 514.007 iterations 1135
Cbc0038I Pass  45: (61.24 seconds) suminf.   77.08296 (1622) obj. 506.13 iterations 749
Cbc0038I Pass  46: (62.06 seconds) suminf.   79.94697 (1617) obj. 514.425 iterations 1075
Cbc0038I Pass  47: (62.61 seconds) suminf.   75.81398 (1642) obj. 505.05 iterations 641
Cbc0038I Pass  48: (63.59 seconds) suminf.   79.39837 (1625) obj. 513.151 iterations 1284
Cbc0038I Pass  49: (64.34 seconds) suminf.   74.76030 (1629) obj. 502.633 iterations 906
Cbc0038I Pass  50: (65.17 seconds) suminf.   80.57322 (1565) obj. 512.192 iterations 1045
Cbc0038I Pass  51: (67.10 seconds) suminf.  126.70503 (1501) obj. 593.97 iterations 2862
Cbc0038I Pass  52: (68.79 seconds) suminf.   90.31063 (1600) obj. 520.523 iterations 2583
Cbc0038I Pass  53: (69.49 seconds) suminf.   86.46955 (1593) obj. 518.905 iterations 831
Cbc0038I Pass  54: (70.69 seconds) suminf.   82.01985 (1432) obj. 562.28 iterations 1504
Cbc0038I Pass  55: (71.26 seconds) suminf.   81.93099 (1444) obj. 566.447 iterations 699
Cbc0038I Pass  56: (72.35 seconds) suminf.   80.04460 (1445) obj. 555.024 iterations 1393
Cbc0038I Pass  57: (72.96 seconds) suminf.   79.20688 (1472) obj. 564.304 iterations 714
Cbc0038I Pass  58: (72.99 seconds) suminf.   79.28495 (1468) obj. 564.392 iterations 12
Cbc0038I Pass  59: (73.51 seconds) suminf.   77.26833 (1459) obj. 563.714 iterations 593
Cbc0038I Pass  60: (73.75 seconds) suminf.   77.34429 (1466) obj. 562.794 iterations 237
Cbc0038I Pass  61: (74.41 seconds) suminf.   78.30507 (1515) obj. 559.141 iterations 781
Cbc0038I Pass  62: (74.75 seconds) suminf.   76.73938 (1503) obj. 558.36 iterations 307
Cbc0038I Pass  63: (75.11 seconds) suminf.   75.99124 (1478) obj. 557.965 iterations 341
Cbc0038I Pass  64: (76.06 seconds) suminf.   80.98453 (1414) obj. 595.582 iterations 1183
Cbc0038I Pass  65: (76.45 seconds) suminf.   79.45518 (1422) obj. 612.392 iterations 408
Cbc0038I Pass  66: (76.91 seconds) suminf.   78.49421 (1500) obj. 610.346 iterations 496
Cbc0038I Pass  67: (77.11 seconds) suminf.   77.35055 (1516) obj. 611.467 iterations 178
Cbc0038I Pass  68: (77.86 seconds) suminf.   78.41413 (1420) obj. 614.401 iterations 904
Cbc0038I Pass  69: (78.32 seconds) suminf.   78.42288 (1423) obj. 614.056 iterations 474
Cbc0038I Pass  70: (79.00 seconds) suminf.   79.06614 (1433) obj. 617.482 iterations 818
Cbc0038I Pass  71: (79.41 seconds) suminf.   78.16681 (1383) obj. 619.219 iterations 406
Cbc0038I Pass  72: (80.81 seconds) suminf.   79.25621 (1415) obj. 613.495 iterations 1752
Cbc0038I Pass  73: (81.30 seconds) suminf.   78.08783 (1400) obj. 617.929 iterations 543
Cbc0038I Pass  74: (81.58 seconds) suminf.   77.24972 (1397) obj. 619.022 iterations 261
Cbc0038I Pass  75: (82.59 seconds) suminf.   77.23142 (1420) obj. 615.448 iterations 1245
Cbc0038I Pass  76: (83.14 seconds) suminf.   74.97529 (1454) obj. 621.179 iterations 582
Cbc0038I Pass  77: (84.01 seconds) suminf.   77.31629 (1407) obj. 603.963 iterations 1126
Cbc0038I Pass  78: (84.36 seconds) suminf.   76.92837 (1418) obj. 598.326 iterations 348
Cbc0038I Pass  79: (84.43 seconds) suminf.   76.68036 (1400) obj. 597.274 iterations 59
Cbc0038I Pass  80: (85.13 seconds) suminf.   77.28574 (1438) obj. 626.155 iterations 853
Cbc0038I Pass  81: (85.56 seconds) suminf.   74.39023 (1479) obj. 628.313 iterations 448
Cbc0038I Pass  82: (85.69 seconds) suminf.   73.87288 (1484) obj. 627.94 iterations 128
Cbc0038I Pass  83: (86.60 seconds) suminf.   77.39752 (1447) obj. 629.366 iterations 1163
Cbc0038I Pass  84: (87.06 seconds) suminf.   76.61882 (1468) obj. 636.099 iterations 489
Cbc0038I Pass  85: (87.61 seconds) suminf.   74.78805 (1489) obj. 631.914 iterations 558
Cbc0038I Pass  86: (88.27 seconds) suminf.   72.60306 (1455) obj. 615.969 iterations 774
Cbc0038I Pass  87: (88.47 seconds) suminf.   73.39705 (1465) obj. 627.624 iterations 185
Cbc0038I Pass  88: (89.47 seconds) suminf.   77.94925 (1437) obj. 614.792 iterations 1257
Cbc0038I Pass  89: (90.20 seconds) suminf.   76.10226 (1488) obj. 634.236 iterations 888
Cbc0038I Pass  90: (90.36 seconds) suminf.   75.99036 (1498) obj. 633.447 iterations 143
Cbc0038I Pass  91: (91.50 seconds) suminf.   73.65957 (1435) obj. 636.224 iterations 1499
Cbc0038I Pass  92: (91.85 seconds) suminf.   71.50929 (1421) obj. 639.223 iterations 332
Cbc0038I Pass  93: (92.09 seconds) suminf.   71.03503 (1425) obj. 639.584 iterations 236
Cbc0038I Pass  94: (92.71 seconds) suminf.   70.90954 (1452) obj. 611.279 iterations 780
Cbc0038I Pass  95: (93.06 seconds) suminf.   71.01996 (1448) obj. 598.444 iterations 313
Cbc0038I Pass  96: (93.82 seconds) suminf.   73.46314 (1436) obj. 585.92 iterations 918
Cbc0038I Pass  97: (94.04 seconds) suminf.   73.44176 (1439) obj. 587.414 iterations 228
Cbc0038I Pass  98: (94.82 seconds) suminf.   72.49281 (1422) obj. 584.883 iterations 951
Cbc0038I Pass  99: (95.17 seconds) suminf.   73.07060 (1439) obj. 591.251 iterations 335
Cbc0038I Pass 100: (97.41 seconds) suminf.  107.91920 (1464) obj. 631.617 iterations 3120
Cbc0038I No solution found this major pass
Cbc0038I Before mini branch and bound, 770 integers at bound fixed and 0 continuous
Cbc0038I Full problem 12052 rows 4026 columns, reduced to 9458 rows 3069 columns - too large
Cbc0038I Mini branch and bound did not improve solution (99.50 seconds)
Cbc0038I After 99.50 seconds - Feasibility pump exiting - took 76.11 seconds
Cbc0031I 127 added rows had average density of 12.314961
Cbc0013I At root node, 127 cuts changed objective from 265.1035 to 265.42478 in 15 passes
Cbc0014I Cut generator 0 (Probing) - 34 row cuts average 4.2 elements, 5 column cuts (5 active)  in 0.757 seconds - new frequency is -100
Cbc0014I Cut generator 1 (Gomory) - 307 row cuts average 10.7 elements, 0 column cuts (0 active)  in 2.251 seconds - new frequency is 1
Cbc0014I Cut generator 2 (Knapsack) - 0 row cuts average 0.0 elements, 0 column cuts (0 active)  in 0.056 seconds - new frequency is -100
Cbc0014I Cut generator 3 (Clique) - 0 row cuts average 0.0 elements, 0 column cuts (0 active)  in 0.268 seconds - new frequency is -100
Cbc0014I Cut generator 4 (MixedIntegerRounding2) - 0 row cuts average 0.0 elements, 0 column cuts (0 active)  in 0.084 seconds - new frequency is -100
Cbc0014I Cut generator 5 (FlowCover) - 0 row cuts average 0.0 elements, 0 column cuts (0 active)  in 0.049 seconds - new frequency is -100
Cbc0014I Cut generator 6 (TwoMirCuts) - 456 row cuts average 15.0 elements, 0 column cuts (0 active)  in 1.846 seconds - new frequency is -100
Cbc0010I After 0 nodes, 1 on tree, 1e+50 best solution, best possible 265.42478 (151.35 seconds)
Cbc0010I After 100 nodes, 21 on tree, 1e+50 best solution, best possible 268 (623.17 seconds)
Cbc0010I After 200 nodes, 24 on tree, 1e+50 best solution, best possible 268 (1316.97 seconds)
Cbc0020I Exiting on maximum time
Cbc0005I Partial search - best objective 1e+50 (best possible 268), took 1101544 iterations and 281 nodes (1790.47 seconds)
Cbc0032I Strong branching done 3672 times (342720 iterations), fathomed 35 nodes and fixed 205 variables
Cbc0035I Maximum depth 36, 0 variables fixed on reduced cost
Cuts at root node changed objective from 265.103 to 265.425
Probing was tried 15 times and created 39 cuts of which 0 were active after adding rounds of cuts (0.757 seconds)
Gomory was tried 66 times and created 379 cuts of which 0 were active after adding rounds of cuts (4.225 seconds)
Knapsack was tried 15 times and created 0 cuts of which 0 were active after adding rounds of cuts (0.056 seconds)
Clique was tried 15 times and created 0 cuts of which 0 were active after adding rounds of cuts (0.268 seconds)
MixedIntegerRounding2 was tried 15 times and created 0 cuts of which 0 were active after adding rounds of cuts (0.084 seconds)
FlowCover was tried 15 times and created 0 cuts of which 0 were active after adding rounds of cuts (0.049 seconds)
TwoMirCuts was tried 15 times and created 456 cuts of which 0 were active after adding rounds of cuts (1.846 seconds)
ZeroHalf was tried 1 times and created 0 cuts of which 0 were active after adding rounds of cuts (0.284 seconds)

Result - Stopped on time limit

No feasible solution found
Lower bound:                    268.000
Enumerated nodes:               281
Total iterations:               1101544
Time (CPU seconds):             1790.47
Time (Wallclock seconds):       1790.85

Total time (CPU seconds):       1790.52   (Wallclock seconds):       1790.90

